NAME 
ROWS
 N  OBJ
 L  R0      
 L  R1      
 L  R2      
 L  R3      
 L  R4      
 L  R5      
 L  R6      
 L  R7      
 L  R8      
 L  R9      
COLUMNS
    MARKER    'MARKER'                 'INTORG'
    x[0]      OBJ       5
    x[0]      R0        8
    x[0]      R1        1
    x[0]      R2        7
    x[0]      R3        1
    x[0]      R4        -7
    x[0]      R5        -1
    x[1]      OBJ       4
    x[1]      R0        -9
    x[1]      R1        -5
    x[1]      R2        8
    x[1]      R3        10
    x[1]      R4        -2
    x[1]      R6        1
    x[1]      R7        1
    x[1]      R8        -1
    x[2]      OBJ       7
    x[2]      R0        -8
    x[2]      R1        -1
    x[2]      R2        7
    x[2]      R3        3
    x[2]      R4        7
    x[2]      R7        -1
    x[2]      R8        -1
    x[3]      OBJ       -8
    x[3]      R0        -8
    x[3]      R1        4
    x[3]      R2        4
    x[3]      R3        -8
    x[3]      R4        9
    x[3]      R7        1
    x[3]      R8        -1
    x[4]      OBJ       -4
    x[4]      R0        7
    x[4]      R2        3
    x[4]      R3        7
    x[4]      R4        4
    x[4]      R6        -1
    x[4]      R7        -1
    x[4]      R8        -1
    x[5]      R0        1
    x[5]      R1        -10
    x[5]      R2        6
    x[5]      R3        -8
    x[5]      R4        10
    x[5]      R5        1
    x[5]      R6        -1
    x[5]      R9        -1
    x[6]      OBJ       -5
    x[6]      R0        8
    x[6]      R1        -4
    x[6]      R2        7
    x[6]      R3        9
    x[6]      R4        -10
    x[6]      R6        -1
    x[6]      R8        -1
    x[7]      OBJ       1
    x[7]      R0        1
    x[7]      R2        6
    x[7]      R3        -7
    x[7]      R4        -8
    x[7]      R7        1
    x[7]      R9        -1
    x[8]      OBJ       2
    x[8]      R0        1
    x[8]      R1        -2
    x[8]      R2        7
    x[8]      R3        9
    x[8]      R4        9
    x[8]      R6        -1
    x[8]      R7        -1
    x[8]      R8        -1
    x[9]      OBJ       -4
    x[9]      R0        9
    x[9]      R1        8
    x[9]      R2        9
    x[9]      R3        -8
    x[9]      R4        10
    x[9]      R7        -1
    x[9]      R9        1
    y[0]      OBJ       -2
    y[0]      R0        -7
    y[0]      R1        -2
    y[0]      R2        4
    y[0]      R4        8
    y[0]      R5        25
    y[0]      R6        -11
    y[0]      R7        -5
    y[0]      R8        71
    y[0]      R9        89
    y[1]      OBJ       -8
    y[1]      R0        9
    y[1]      R1        -5
    y[1]      R3        -2
    y[1]      R4        6
    y[1]      R5        -22
    y[1]      R6        -73
    y[1]      R7        -90
    y[1]      R8        28
    y[1]      R9        -31
    y[2]      OBJ       -3
    y[2]      R0        -10
    y[2]      R1        6
    y[2]      R2        -6
    y[2]      R3        1
    y[2]      R5        -41
    y[2]      R6        21
    y[2]      R7        -31
    y[2]      R8        84
    y[2]      R9        78
    y[3]      OBJ       -8
    y[3]      R0        9
    y[3]      R1        5
    y[3]      R2        -3
    y[3]      R3        7
    y[3]      R4        4
    y[3]      R5        84
    y[3]      R6        57
    y[3]      R7        61
    y[3]      R8        42
    y[3]      R9        -42
    y[4]      OBJ       -1
    y[4]      R0        7
    y[4]      R1        -2
    y[4]      R2        10
    y[4]      R3        -6
    y[4]      R4        5
    y[4]      R5        -56
    y[4]      R6        -23
    y[4]      R7        -64
    y[4]      R8        -45
    y[4]      R9        15
    y[5]      OBJ       -4
    y[5]      R0        -10
    y[5]      R2        -8
    y[5]      R3        4
    y[5]      R4        -5
    y[5]      R5        63
    y[5]      R6        -90
    y[5]      R7        37
    y[5]      R8        -45
    y[5]      R9        42
    y[6]      OBJ       -6
    y[6]      R0        10
    y[6]      R1        8
    y[6]      R2        -1
    y[6]      R3        -7
    y[6]      R4        -2
    y[6]      R5        -61
    y[6]      R6        89
    y[6]      R7        16
    y[6]      R8        80
    y[6]      R9        4
    y[7]      OBJ       -9
    y[7]      R0        -7
    y[7]      R2        -7
    y[7]      R3        10
    y[7]      R4        10
    y[7]      R5        -39
    y[7]      R6        44
    y[7]      R7        28
    y[7]      R8        -47
    y[7]      R9        -23
    y[8]      OBJ       -3
    y[8]      R0        7
    y[8]      R1        -2
    y[8]      R2        8
    y[8]      R3        -2
    y[8]      R4        -4
    y[8]      R5        -68
    y[8]      R6        -21
    y[8]      R7        -45
    y[8]      R8        88
    y[8]      R9        40
    y[9]      OBJ       -2
    y[9]      R0        -5
    y[9]      R1        -6
    y[9]      R2        3
    y[9]      R3        1
    y[9]      R4        9
    y[9]      R5        -33
    y[9]      R6        -24
    y[9]      R7        9
    y[9]      R8        -100
    y[9]      R9        -89
    MARKER    'MARKER'                 'INTEND'
RHS
    RHS1      R0        3.25
    RHS1      R1        -1.75
    RHS1      R2        16
    RHS1      R3        3.5
    RHS1      R4        13.25
    RHS1      R5        -37
    RHS1      R6        -8
    RHS1      R7        -21
    RHS1      R8        38
    RHS1      R9        20
BOUNDS
 BV BND1      x[0]    
 BV BND1      x[1]    
 BV BND1      x[2]    
 BV BND1      x[3]    
 BV BND1      x[4]    
 BV BND1      x[5]    
 BV BND1      x[6]    
 BV BND1      x[7]    
 BV BND1      x[8]    
 BV BND1      x[9]    
 BV BND1      y[0]    
 BV BND1      y[1]    
 BV BND1      y[2]    
 BV BND1      y[3]    
 BV BND1      y[4]    
 BV BND1      y[5]    
 BV BND1      y[6]    
 BV BND1      y[7]    
 BV BND1      y[8]    
 BV BND1      y[9]    
ENDATA
